100 1273
1 2 1
1 3 -1
1 5 -1
1 7 -1
1 10 1
1 22 -1
1 24 1
1 25 1
1 34 -1
1 38 -1
1 41 1
1 44 1
1 49 1
1 50 1
1 52 -1
1 57 -1
1 59 -1
1 65 -1
1 68 -1
1 71 1
1 75 -1
1 76 1
1 78 -1
1 100 -1
2 3 -1
2 6 1
2 15 1
2 25 -1
2 28 1
2 29 1
2 30 1
2 33 -1
2 36 -1
2 38 1
2 56 -1
2 66 1
2 71 -1
2 78 1
2 79 1
2 83 1
2 90 1
2 91 1
2 95 -1
2 99 1
2 100 -1
3 8 -1
3 9 -1
3 12 1
3 21 1
3 24 -1
3 27 1
3 31 1
3 35 1
3 36 1
3 39 -1
3 54 -1
3 57 1
3 58 1
3 59 -1
3 60 1
3 62 -1
3 66 -1
3 79 -1
3 88 -1
3 95 1
3 97 -1
3 98 -1
4 7 1
4 9 1
4 14 -1
4 19 1
4 21 -1
4 23 1
4 30 1
4 32 1
4 34 -1
4 36 -1
4 38 -1
4 40 -1
4 42 1
4 45 1
4 51 -1
4 58 -1
4 59 -1
4 63 -1
4 64 -1
4 66 1
4 68 -1
4 71 -1
4 72 -1
4 83 1
4 90 1
4 92 -1
5 6 -1
5 7 -1
5 8 -1
5 11 -1
5 14 1
5 15 1
5 20 1
5 22 -1
5 28 1
5 30 -1
5 37 -1
5 39 -1
5 41 1
5 46 1
5 47 -1
5 49 1
5 50 1
5 52 1
5 55 -1
5 65 -1
5 67 1
5 70 1
5 84 1
5 86 1
5 87 -1
5 95 -1
5 97 1
5 98 -1
6 8 1
6 9 1
6 12 -1
6 17 1
6 20 -1
6 27 1
6 28 -1
6 31 -1
6 34 -1
6 35 -1
6 37 1
6 41 -1
6 42 -1
6 43 1
6 45 1
6 46 1
6 51 1
6 53 -1
6 56 1
6 58 -1
6 59 -1
6 64 1
6 68 1
6 69 1
6 71 1
6 73 -1
6 74 1
6 75 1
6 78 1
6 81 1
6 84 -1
6 87 -1
6 88 -1
6 91 1
6 96 1
6 98 -1
7 9 1
7 11 1
7 20 1
7 21 -1
7 23 -1
7 26 1
7 35 -1
7 38 1
7 39 -1
7 40 1
7 42 -1
7 49 1
7 54 1
7 57 1
7 59 -1
7 60 -1
7 61 -1
7 68 -1
7 72 -1
7 74 -1
7 79 -1
7 82 -1
7 83 1
7 84 1
7 86 -1
7 91 -1
7 94 1
8 10 1
8 11 1
8 14 -1
8 22 1
8 24 1
8 32 1
8 33 1
8 35 -1
8 49 1
8 54 -1
8 60 -1
8 64 -1
8 65 1
8 71 1
8 73 1
8 76 1
8 81 -1
8 87 1
8 88 1
8 89 -1
8 93 -1
8 100 -1
9 14 1
9 15 -1
9 17 1
9 20 -1
9 24 1
9 26 1
9 29 -1
9 37 1
9 45 -1
9 48 -1
9 51 1
9 54 1
9 66 -1
9 69 -1
9 71 1
9 79 -1
9 81 1
9 92 -1
9 94 1
10 13 1
10 15 1
10 23 1
10 30 -1
10 32 1
10 38 1
10 47 1
10 49 -1
10 51 1
10 53 -1
10 54 1
10 56 1
10 60 1
10 64 -1
10 65 1
10 68 1
10 72 -1
10 84 -1
10 87 -1
10 89 1
10 95 1
11 14 1
11 15 -1
11 17 -1
11 20 -1
11 21 1
11 24 -1
11 25 -1
11 35 1
11 43 1
11 50 -1
11 54 1
11 55 1
11 57 1
11 60 -1
11 61 1
11 63 1
11 64 -1
11 65 1
11 67 -1
11 68 -1
11 73 -1
11 75 1
11 82 -1
11 88 1
11 90 -1
11 100 1
12 15 -1
12 16 1
12 17 -1
12 18 1
12 20 1
12 21 -1
12 23 -1
12 37 1
12 39 1
12 40 1
12 41 1
12 46 -1
12 53 -1
12 54 1
12 60 1
12 64 -1
12 68 -1
12 71 1
12 76 -1
12 81 1
12 84 1
12 85 -1
12 86 1
12 87 -1
12 90 1
12 92 -1
12 96 1
12 97 -1
13 16 -1
13 18 -1
13 21 -1
13 22 -1
13 24 1
13 26 -1
13 27 1
13 34 1
13 38 -1
13 42 1
13 53 -1
13 54 1
13 60 -1
13 69 1
13 82 1
13 89 -1
13 92 1
13 93 -1
13 98 1
13 99 -1
14 17 -1
14 27 -1
14 30 1
14 34 1
14 35 1
14 36 1
14 37 1
14 44 -1
14 47 1
14 49 -1
14 54 -1
14 55 1
14 59 1
14 69 -1
14 70 1
14 76 -1
14 77 1
14 82 1
14 84 -1
14 86 1
14 92 1
15 20 -1
15 27 -1
15 35 1
15 36 -1
15 37 -1
15 46 -1
15 50 1
15 54 1
15 58 -1
15 63 -1
15 68 1
15 74 -1
15 86 1
15 88 1
15 93 1
15 95 1
16 19 1
16 24 -1
16 30 1
16 31 -1
16 35 1
16 36 -1
16 42 1
16 51 1
16 52 1
16 56 1
16 63 1
16 66 -1
16 73 1
16 79 -1
16 80 1
16 81 -1
16 83 1
16 85 1
16 87 -1
16 92 -1
16 96 -1
16 99 -1
17 18 1
17 20 1
17 23 -1
17 28 1
17 33 1
17 34 1
17 35 1
17 38 -1
17 45 -1
17 53 1
17 63 -1
17 64 1
17 71 1
17 75 -1
17 77 -1
17 79 1
17 82 -1
17 87 -1
18 22 1
18 24 -1
18 25 1
18 28 1
18 31 1
18 33 1
18 34 -1
18 35 -1
18 37 1
18 38 -1
18 43 1
18 45 -1
18 46 1
18 49 -1
18 51 1
18 53 -1
18 54 -1
18 64 1
18 68 1
18 69 -1
18 70 1
18 75 -1
18 76 1
18 78 -1
18 91 1
18 93 -1
18 98 -1
19 26 1
19 29 1
19 32 1
19 35 1
19 38 1
19 44 1
19 50 -1
19 51 1
19 58 -1
19 59 1
19 61 -1
19 70 1
19 75 -1
19 82 -1
19 87 -1
20 21 1
20 29 -1
20 42 -1
20 45 -1
20 47 1
20 49 1
20 50 1
20 51 -1
20 56 1
20 58 -1
20 63 -1
20 66 -1
20 68 -1
20 75 1
20 78 -1
20 80 1
20 82 -1
20 83 -1
20 87 1
20 91 -1
20 99 1
21 27 1
21 31 -1
21 33 -1
21 37 1
21 42 -1
21 46 -1
21 48 -1
21 49 -1
21 51 -1
21 53 1
21 65 -1
21 70 1
21 80 -1
21 85 -1
21 89 1
21 92 1
21 96 1
22 41 1
22 42 -1
22 46 -1
22 51 1
22 52 -1
22 62 1
22 64 1
22 65 -1
22 68 1
22 69 1
22 70 -1
22 73 1
22 74 -1
22 77 -1
22 80 1
22 83 1
22 86 -1
22 89 1
23 31 -1
23 42 1
23 45 1
23 49 -1
23 52 -1
23 54 -1
23 57 1
23 60 -1
23 63 -1
23 64 -1
23 71 1
23 72 1
23 73 1
23 79 -1
23 80 -1
23 81 -1
23 82 -1
23 86 -1
23 88 1
23 100 -1
24 28 1
24 34 -1
24 36 -1
24 37 -1
24 39 -1
24 40 1
24 42 -1
24 45 1
24 46 -1
24 47 -1
24 57 1
24 59 1
24 64 -1
24 69 -1
24 74 -1
24 75 -1
24 78 -1
24 84 -1
24 86 -1
24 87 -1
24 90 1
24 99 -1
25 26 1
25 34 1
25 36 1
25 42 1
25 51 -1
25 56 -1
25 57 1
25 68 -1
25 69 -1
25 72 1
25 75 -1
25 78 -1
25 83 1
25 84 1
25 86 -1
25 89 -1
25 90 1
25 96 1
25 99 -1
26 28 1
26 30 -1
26 45 1
26 47 1
26 52 1
26 58 -1
26 62 -1
26 63 1
26 65 -1
26 70 1
26 73 1
26 74 -1
26 80 -1
26 83 1
26 89 -1
26 97 -1
26 100 1
27 30 1
27 35 -1
27 36 1
27 38 -1
27 42 1
27 50 1
27 51 -1
27 57 1
27 58 1
27 60 1
27 61 1
27 63 1
27 73 -1
27 77 1
27 80 -1
27 87 -1
27 90 -1
27 91 1
27 92 -1
27 95 1
27 96 1
27 97 1
27 98 1
27 100 1
28 30 -1
28 31 -1
28 34 -1
28 36 -1
28 42 -1
28 43 -1
28 45 -1
28 46 1
28 54 -1
28 68 -1
28 71 -1
28 74 1
28 75 1
28 76 1
28 77 -1
28 87 -1
28 90 1
28 92 -1
29 30 1
29 31 -1
29 36 1
29 38 -1
29 43 -1
29 44 -1
29 49 1
29 50 1
29 52 -1
29 57 1
29 65 -1
29 69 -1
29 73 -1
29 78 1
29 83 1
29 92 -1
29 93 -1
29 97 1
29 98 -1
29 100 1
30 32 -1
30 35 -1
30 40 -1
30 42 1
30 45 -1
30 49 -1
30 55 1
30 58 1
30 59 1
30 62 1
30 69 1
30 70 1
30 73 -1
30 78 1
30 100 -1
31 37 1
31 38 1
31 41 -1
31 44 -1
31 45 1
31 47 1
31 49 1
31 54 -1
31 56 1
31 57 -1
31 58 -1
31 59 1
31 68 -1
31 73 -1
31 75 1
31 77 1
31 79 -1
31 80 -1
31 81 1
31 83 1
32 33 1
32 36 1
32 37 -1
32 42 1
32 43 -1
32 44 -1
32 49 -1
32 50 1
32 61 -1
32 62 -1
32 68 -1
32 73 1
32 76 1
32 85 1
32 90 -1
32 96 1
32 98 1
32 99 -1
33 40 -1
33 42 1
33 45 1
33 47 1
33 56 -1
33 57 1
33 61 1
33 66 -1
33 68 -1
33 70 -1
33 71 -1
33 73 -1
33 75 1
33 77 1
33 82 1
33 87 -1
33 88 1
33 94 1
33 97 -1
33 99 1
34 39 -1
34 43 1
34 44 1
34 49 1
34 50 1
34 52 1
34 56 -1
34 66 1
34 70 1
34 76 -1
34 81 -1
34 82 1
34 83 1
34 89 1
34 93 -1
35 46 1
35 49 1
35 51 -1
35 54 1
35 60 -1
35 73 1
35 77 1
35 78 -1
35 85 -1
35 89 1
35 99 1
35 100 -1
36 37 -1
36 38 1
36 39 -1
36 43 -1
36 47 1
36 48 -1
36 50 -1
36 52 -1
36 53 1
36 61 1
36 64 1
36 65 1
36 67 1
36 74 1
36 79 -1
36 84 -1
36 88 1
36 91 -1
36 92 1
36 94 -1
36 96 -1
37 38 -1
37 39 -1
37 41 1
37 44 1
37 52 1
37 59 1
37 60 1
37 61 -1
37 63 1
37 65 -1
37 70 -1
37 71 -1
37 73 -1
37 74 -1
37 79 -1
37 81 1
37 82 1
37 84 1
37 92 1
38 39 -1
38 49 -1
38 57 1
38 59 -1
38 60 -1
38 61 -1
38 65 -1
38 67 1
38 70 -1
38 74 -1
38 75 1
38 82 1
38 85 -1
38 89 1
38 90 -1
38 95 1
38 97 1
38 99 1
39 40 1
39 44 1
39 52 -1
39 60 -1
39 69 1
39 81 1
39 83 -1
39 87 1
40 47 1
40 55 1
40 60 1
40 68 -1
40 69 -1
40 70 1
40 75 -1
40 78 -1
40 79 1
40 80 -1
40 82 -1
40 84 1
40 89 -1
40 90 1
40 92 -1
40 93 -1
40 97 -1
40 100 1
41 43 1
41 44 1
41 46 1
41 48 -1
41 52 1
41 53 -1
41 66 1
41 68 -1
41 76 1
41 81 -1
41 86 -1
41 88 -1
41 90 1
41 100 -1
42 43 1
42 44 -1
42 46 -1
42 48 -1
42 49 -1
42 70 -1
42 73 -1
42 75 1
42 78 -1
42 81 -1
42 83 1
42 84 -1
42 86 -1
42 90 -1
42 93 -1
42 98 -1
43 45 1
43 56 -1
43 60 -1
43 61 1
43 66 -1
43 69 1
43 75 1
43 76 1
43 83 -1
43 90 -1
43 94 1
43 96 1
44 45 -1
44 53 -1
44 57 -1
44 66 -1
44 72 -1
44 73 -1
44 78 1
44 83 1
44 86 -1
44 87 1
44 93 1
44 96 1
44 98 1
44 99 1
45 51 1
45 65 -1
45 69 -1
45 72 1
45 75 1
45 77 1
45 80 -1
45 82 1
45 86 -1
45 92 1
45 100 -1
46 49 -1
46 52 1
46 54 -1
46 57 1
46 59 -1
46 61 -1
46 70 1
46 73 -1
46 77 -1
46 87 1
46 89 -1
46 95 1
46 96 -1
47 52 1
47 53 1
47 54 -1
47 55 1
47 61 -1
47 65 1
47 66 -1
47 70 -1
47 73 -1
47 74 1
47 75 1
47 76 -1
47 80 -1
47 81 -1
47 83 1
47 90 -1
47 91 1
47 93 -1
48 49 1
48 51 1
48 52 -1
48 53 1
48 56 1
48 60 -1
48 64 -1
48 71 1
48 76 1
48 78 1
48 80 -1
48 82 -1
48 86 -1
48 88 -1
48 92 1
48 93 -1
48 98 -1
49 51 1
49 52 1
49 65 -1
49 70 1
49 77 1
49 78 -1
49 83 1
49 89 -1
49 93 -1
49 94 -1
49 96 -1
50 54 -1
50 58 -1
50 59 -1
50 60 1
50 63 -1
50 64 1
50 70 1
50 79 1
50 84 -1
50 87 -1
50 99 -1
51 52 -1
51 58 1
51 67 1
51 69 1
51 72 1
51 78 -1
51 81 1
51 84 -1
51 91 -1
51 100 -1
52 55 1
52 58 -1
52 73 -1
52 74 -1
52 78 -1
52 82 1
52 83 -1
52 84 -1
52 87 -1
52 90 -1
52 93 1
53 55 1
53 56 1
53 63 -1
53 64 1
53 69 -1
53 70 1
53 72 -1
53 73 1
53 74 -1
53 82 -1
53 83 1
53 86 -1
53 94 -1
54 57 -1
54 64 1
54 76 -1
54 88 -1
54 89 1
54 90 -1
54 91 -1
54 93 -1
55 58 -1
55 67 -1
55 71 1
55 73 -1
55 76 1
55 78 -1
55 83 1
55 84 1
55 86 -1
55 87 1
55 89 1
55 91 -1
55 92 -1
55 94 -1
55 96 -1
55 97 -1
56 60 1
56 61 -1
56 62 1
56 70 1
56 77 1
56 78 -1
56 81 1
56 82 1
56 87 -1
56 93 -1
56 96 1
56 97 1
56 98 1
57 61 1
57 63 1
57 66 -1
57 69 1
57 72 1
57 73 -1
57 81 1
57 85 1
57 86 -1
57 90 -1
57 96 -1
57 98 1
57 99 -1
58 59 1
58 61 1
58 63 1
58 69 1
58 71 -1
58 73 1
58 76 1
58 78 -1
58 81 1
58 88 1
58 90 1
58 94 1
58 100 -1
59 60 1
59 65 1
59 66 -1
59 68 -1
59 70 1
59 77 -1
59 79 1
59 82 -1
59 88 -1
59 89 -1
59 93 -1
59 97 1
60 63 1
60 70 -1
60 73 -1
60 76 1
60 83 -1
60 86 -1
60 90 1
60 96 -1
60 97 -1
60 98 1
61 63 1
61 74 -1
61 84 1
61 96 -1
61 99 -1
62 66 -1
62 67 -1
62 70 -1
62 71 -1
62 75 1
62 76 -1
62 79 1
62 82 1
62 93 1
62 97 1
62 100 -1
63 64 1
63 66 1
63 68 1
63 73 1
63 74 -1
63 82 -1
63 84 -1
63 87 1
63 94 1
63 97 1
64 72 1
64 77 1
64 80 1
64 82 -1
64 84 1
64 88 -1
64 92 1
64 93 1
64 94 -1
65 69 -1
65 75 -1
65 76 1
65 78 -1
65 80 1
65 83 -1
65 89 -1
65 95 -1
65 96 -1
65 99 -1
66 68 1
66 79 -1
66 83 1
66 92 -1
66 94 -1
67 74 -1
67 78 1
67 79 -1
67 80 -1
67 89 -1
67 90 -1
67 91 1
67 92 1
68 71 1
68 76 -1
68 77 1
68 79 1
68 80 -1
68 84 1
68 85 1
68 88 1
68 94 1
68 95 1
68 98 1
68 100 -1
69 73 1
69 77 -1
69 80 1
69 81 1
69 94 -1
69 95 1
69 97 1
69 98 -1
69 100 -1
70 71 -1
70 72 1
70 83 -1
70 84 -1
70 86 -1
70 92 -1
70 95 1
71 75 1
71 77 1
71 83 -1
71 87 1
71 90 1
71 91 -1
71 97 -1
71 99 1
71 100 1
72 76 1
72 77 1
72 82 1
72 90 1
72 91 1
72 96 1
72 98 1
72 99 -1
72 100 1
73 81 -1
73 83 1
73 85 -1
73 86 -1
73 87 1
73 93 1
74 77 -1
74 79 -1
74 83 -1
74 85 1
74 91 1
74 100 1
75 81 1
75 82 1
75 94 1
75 95 1
75 99 1
76 82 1
76 87 1
76 91 -1
76 96 -1
77 85 -1
77 86 1
77 95 -1
77 98 -1
77 99 -1
78 79 1
78 80 -1
78 81 -1
78 84 1
78 85 1
78 97 1
78 99 -1
78 100 -1
79 87 1
79 91 -1
79 96 1
79 98 -1
80 86 1
80 87 -1
80 89 -1
80 94 1
81 82 -1
81 86 -1
81 87 1
81 96 1
81 97 -1
81 98 1
81 99 1
81 100 -1
82 92 -1
82 93 -1
82 94 -1
83 90 1
83 91 -1
83 94 -1
83 99 -1
84 91 1
84 95 -1
84 97 -1
85 86 -1
85 87 -1
85 88 1
85 91 -1
85 93 1
86 88 1
86 90 1
86 94 -1
86 97 -1
86 99 -1
87 88 -1
87 96 -1
88 93 -1
88 94 1
88 97 -1
88 98 1
88 100 -1
89 94 1
89 96 -1
89 97 1
90 93 -1
91 93 1
91 94 1
91 98 -1
91 99 -1
92 95 1
93 98 -1
93 100 -1
94 96 1
94 98 -1
95 96 1
95 97 -1
95 100 1
96 100 -1
